db/data/5922174149042241114078116321425340.z3.out
sat
-------------------
2046.413102523
